(set-info :smt-lib-version 2.6)
(set-logic UF)
(set-info :source |Benchmarks from the paper: "Extending Sledgehammer with SMT Solvers" by Jasmin Blanchette, Sascha Bohme, and Lawrence C. Paulson, CADE 2011.  Translated to SMT2 by Andrew Reynolds and Morgan Deters.|)
(set-info :category "industrial")
(set-info :status unsat)
(declare-sort S1 0)
(declare-sort S2 0)
(declare-sort S3 0)
(declare-sort S4 0)
(declare-sort S5 0)
(declare-sort S6 0)
(declare-sort S7 0)
(declare-sort S8 0)
(declare-sort S9 0)
(declare-sort S10 0)
(declare-sort S11 0)
(declare-sort S12 0)
(declare-sort S13 0)
(declare-sort S14 0)
(declare-sort S15 0)
(declare-sort S16 0)
(declare-sort S17 0)
(declare-sort S18 0)
(declare-fun f1 () S1)
(declare-fun f2 () S1)
(declare-fun f3 (S2 S3) S4)
(declare-fun f4 (S5 S4) S2)
(declare-fun f5 (S6 S3) S5)
(declare-fun f6 (S7 S2) S6)
(declare-fun f7 () S7)
(declare-fun f8 (S8 S3) S9)
(declare-fun f9 (S10 S9) S8)
(declare-fun f10 (S11 S3) S10)
(declare-fun f11 (S12 S8) S11)
(declare-fun f12 () S12)
(declare-fun f13 (S13 S14 S8 S2) S1)
(declare-fun f14 (S16 S15) S9)
(declare-fun f15 () S16)
(declare-fun f16 (S18 S17) S4)
(declare-fun f17 () S18)
(declare-fun f18 (S13 S14 S15 S17) S1)
(declare-fun f19 () S13)
(declare-fun f20 () S14)
(declare-fun f21 () S8)
(declare-fun f22 () S2)
(declare-fun f23 () S8)
(declare-fun f24 () S3)
(declare-fun f25 () S17)
(assert (not (= f1 f2)))
(assert (forall ((?v0 S2) (?v1 S3) (?v2 S4) (?v3 S3)) (= (f3 (f4 (f5 (f6 f7 ?v0) ?v1) ?v2) ?v3) (ite (= ?v3 ?v1) ?v2 (f3 ?v0 ?v3)))))
(assert (forall ((?v0 S8) (?v1 S3) (?v2 S9) (?v3 S3)) (= (f8 (f9 (f10 (f11 f12 ?v0) ?v1) ?v2) ?v3) (ite (= ?v3 ?v1) ?v2 (f8 ?v0 ?v3)))))
(assert (forall ((?v0 S3) (?v1 S3) (?v2 S2) (?v3 S4)) (=> (not (= ?v0 ?v1)) (= (f3 (f4 (f5 (f6 f7 ?v2) ?v1) ?v3) ?v0) (f3 ?v2 ?v0)))))
(assert (forall ((?v0 S3) (?v1 S3) (?v2 S8) (?v3 S9)) (=> (not (= ?v0 ?v1)) (= (f8 (f9 (f10 (f11 f12 ?v2) ?v1) ?v3) ?v0) (f8 ?v2 ?v0)))))
(assert (forall ((?v0 S2) (?v1 S3)) (= (f4 (f5 (f6 f7 ?v0) ?v1) (f3 ?v0 ?v1)) ?v0)))
(assert (forall ((?v0 S8) (?v1 S3)) (= (f9 (f10 (f11 f12 ?v0) ?v1) (f8 ?v0 ?v1)) ?v0)))
(assert (forall ((?v0 S2) (?v1 S3) (?v2 S4)) (= (f3 (f4 (f5 (f6 f7 ?v0) ?v1) ?v2) ?v1) ?v2)))
(assert (forall ((?v0 S8) (?v1 S3) (?v2 S9)) (= (f8 (f9 (f10 (f11 f12 ?v0) ?v1) ?v2) ?v1) ?v2)))
(assert (forall ((?v0 S13) (?v1 S14) (?v2 S8) (?v3 S2)) (= (= (f13 ?v0 ?v1 ?v2 ?v3) f1) (forall ((?v4 S3) (?v5 S15)) (=> (= (f8 ?v2 ?v4) (f14 f15 ?v5)) (exists ((?v6 S17)) (and (= (f3 ?v3 ?v4) (f16 f17 ?v6)) (= (f18 ?v0 ?v1 ?v5 ?v6) f1))))))))
(assert (not (=> (= (f13 f19 f20 f21 f22) f1) (=> (= (f13 f19 f20 f23 (f4 (f5 (f6 f7 f22) f24) (f16 f17 f25))) f1) (= (f13 f19 f20 (f9 (f10 (f11 f12 f23) f24) (f8 f21 f24)) f22) f1)))))
(check-sat)
(exit)
